Gurobi Optimizer version 9.0.1 build v9.0.1rc0 (linux64)
Optimize a model with 131581 rows, 1892 columns and 468009 nonzeros
Model fingerprint: 0xbe94f6b7
Coefficient statistics:
  Matrix range     [1e+00, 1e+00]
  Objective range  [1e+00, 1e+00]
  Bounds range     [0e+00, 0e+00]
  RHS range        [1e+05, 1e+05]
Presolve time: 0.42s
Presolved: 1892 rows, 131581 columns, 468009 nonzeros
Ordering time: 0.31s

Barrier statistics:
 AA' NZ     : 2.815e+05
 Factor NZ  : 1.363e+06 (roughly 60 MBytes of memory)
 Factor Ops : 1.227e+09 (less than 1 second per iteration)
 Threads    : 1

                  Objective                Residual
Iter       Primal          Dual         Primal    Dual     Compl     Time
   0   1.47729649e+04  1.98515347e+03  4.40e+02 9.15e+04  2.63e+04     1s
   1   7.37589547e+05  4.62164014e+06  2.20e+02 9.30e+04  1.31e+04     1s
   2   9.23891351e+04  5.51797729e+06  3.11e+01 7.06e+04  2.02e+03     1s
   3   1.38602558e+04  5.26152235e+06  5.43e+00 2.22e+04  3.90e+02     1s
   4   4.86986848e+03  3.79742684e+06  1.79e+00 8.31e+03  1.42e+02     2s
   5   2.29910912e+03  2.79037901e+06  7.05e-01 3.73e+03  6.30e+01     2s
   6   9.85255817e+02  1.71500188e+06  1.31e-01 1.30e+03  1.90e+01     2s
   7   6.87352780e+02  5.79146861e+05  5.86e-04 2.97e+02  4.52e+00     2s
   8   9.89456684e+02  6.77943325e+04  2.56e-11 3.43e+01  5.20e-01     2s
   9   9.89179452e+03  6.75254478e+04  2.06e-11 3.06e+01  4.49e-01     2s
  10   1.29014966e+04  6.39409102e+04  1.94e-11 2.38e+01  3.96e-01     3s
  11   2.41895205e+04  6.02150667e+04  1.52e-11 1.59e+01  2.78e-01     3s
  12   3.08617965e+04  5.62753251e+04  1.26e-11 1.25e+01  1.97e-01     3s
  13   3.52540141e+04  5.55265904e+04  1.04e-11 1.13e+01  1.57e-01     3s
  14   3.79500982e+04  5.27227303e+04  1.08e-11 7.76e+00  1.14e-01     3s
  15   4.08557757e+04  5.08139569e+04  5.26e-12 5.38e+00  7.71e-02     4s
  16   4.32561556e+04  4.94269811e+04  2.20e-12 3.78e+00  4.79e-02     4s
  17   4.39618622e+04  4.89422947e+04  1.22e-12 3.14e+00  3.88e-02     4s
  18   4.42815339e+04  4.88398215e+04  1.52e-12 2.97e+00  3.55e-02     4s
  19   4.53434251e+04  4.78299864e+04  4.38e-12 1.71e+00  1.94e-02     4s
  20   4.54540963e+04  4.76937655e+04  4.17e-12 1.52e+00  1.75e-02     4s
  21   4.57269877e+04  4.73491201e+04  2.39e-12 1.11e+00  1.27e-02     4s
  22   4.60302334e+04  4.71457346e+04  2.12e-12 8.66e-01  8.75e-03     5s
  23   4.60914206e+04  4.70893595e+04  2.34e-12 7.84e-01  7.83e-03     5s
  24   4.61309628e+04  4.70291045e+04  1.85e-12 7.04e-01  7.05e-03     5s
  25   4.62136441e+04  4.70126876e+04  1.08e-12 6.64e-01  6.28e-03     5s
  26   4.62981422e+04  4.69222954e+04  1.29e-12 5.30e-01  4.91e-03     5s
  27   4.63472607e+04  4.68873539e+04  1.51e-12 4.54e-01  4.24e-03     5s
  28   4.65564495e+04  4.68277692e+04  2.50e-12 3.01e-01  2.16e-03     6s
  29   4.66448143e+04  4.67308420e+04  2.02e-12 6.35e-02  6.72e-04     6s
  30   4.66993495e+04  4.67040294e+04  3.92e-12 2.45e-03  3.62e-05     6s
  31   4.67026991e+04  4.67027043e+04  1.04e-11 0.00e+00  3.83e-08     6s
  32   4.67027027e+04  4.67027027e+04  2.44e-12 2.91e-11  1.29e-13     6s

Barrier solved model in 32 iterations and 6.23 seconds
Optimal objective 4.67027027e+04

Solver name: Gurobi
Solve time: 6.262750597
Termination status: OPTIMAL
Result count: 1
Primal status: FEASIBLE_POINT
Dual status: FEASIBLE_POINT
